NAME: line_42_16
TYPE: TSP
COMMENT: srandom_42_16
DIMENSION: 42
EDGE_WEIGHT_TYPE: EUC_2D
NODE_COORD_SECTION
1 1667 4531
2 1070 3597
3 2652 1085
4 3438 3454
5 1064 2743
6 3137 4412
7 396 4685
8 2812 4754
9 2050 780
10 2314 4661
11 4581 2438
12 406 2650
13 395 1373
14 1487 3450
15 2999 705
16 1215 1136
17 3798 3954
18 1822 1864
19 288 525
20 3268 4435
21 4880 4601
22 4786 2792
23 2107 1632
24 1176 2861
25 3301 1471
26 2051 340
27 3258 3157
28 3035 2744
29 4353 4192
30 3728 1289
31 2417 438
32 2243 4171
33 956 3787
34 3503 987
35 4198 4350
36 2377 4077
37 4108 2742
38 3289 3018
39 4468 4914
40 2830 2114
41 1160 1514
42 873 2284
